(set-info :smt-lib-version 2.6)
(set-logic QF_BV)
(set-info :source |
            Generated by: Samuel Coward
            Generated on: 2025-08-12
            Generator: CIRCT
            Application: Datapath synthesis of digital circuits 
            Target solver: Bitwuzla
            Time limit: 300.0
            Benchmarks generated by the CIRCT tool to check correctness of lowering
            from word-level bitvector circuit to a gate-level netlist.
            Using compressor tree circuits proves challenging for SMT.|)
(set-info :license "https://creativecommons.org/licenses/by/4.0/")
(set-info :category "industrial")
(set-info :status unsat)

; solver scope 0
(declare-const tmp (_ BitVec 4))
(declare-const tmp_0 (_ BitVec 4))
(declare-const tmp_1 (_ BitVec 4))
(declare-const tmp_2 (_ BitVec 4))
(assert (let ((tmp_3 ((_ extract 0 0) tmp_2)))
        (let ((tmp_4 ((_ extract 0 0) tmp)))
        (let ((tmp_5 ((_ extract 0 0) tmp_0)))
        (let ((tmp_6 (bvand tmp_5 tmp_4)))
        (let ((tmp_7 (bvand tmp_6 tmp_3)))
        (let ((tmp_8 (bvxor tmp_7 #b1)))
        (let ((tmp_9 (bvxor tmp_3 #b1)))
        (let ((tmp_10 (bvxor tmp_6 #b1)))
        (let ((tmp_11 (bvand tmp_10 tmp_9)))
        (let ((tmp_12 (bvxor tmp_11 #b1)))
        (let ((tmp_13 (bvand tmp_12 tmp_8)))
        (let ((tmp_14 ((_ extract 1 1) tmp_2)))
        (let ((tmp_15 ((_ extract 1 1) tmp_0)))
        (let ((tmp_16 (bvand tmp_15 tmp_4)))
        (let ((tmp_17 ((_ extract 1 1) tmp)))
        (let ((tmp_18 (bvand tmp_5 tmp_17)))
        (let ((tmp_19 (bvand tmp_18 tmp_16)))
        (let ((tmp_20 (bvxor tmp_19 #b1)))
        (let ((tmp_21 (bvxor tmp_16 #b1)))
        (let ((tmp_22 (bvxor tmp_18 #b1)))
        (let ((tmp_23 (bvand tmp_22 tmp_21)))
        (let ((tmp_24 (bvxor tmp_23 #b1)))
        (let ((tmp_25 (bvand tmp_24 tmp_20)))
        (let ((tmp_26 (bvand tmp_25 tmp_14)))
        (let ((tmp_27 (bvxor tmp_26 #b1)))
        (let ((tmp_28 (bvxor tmp_14 #b1)))
        (let ((tmp_29 (bvxor tmp_25 #b1)))
        (let ((tmp_30 (bvand tmp_29 tmp_28)))
        (let ((tmp_31 (bvxor tmp_30 #b1)))
        (let ((tmp_32 (bvand tmp_31 tmp_27)))
        (let ((tmp_33 (bvand tmp_32 tmp_7)))
        (let ((tmp_34 (bvxor tmp_33 #b1)))
        (let ((tmp_35 (bvxor tmp_32 #b1)))
        (let ((tmp_36 (bvand tmp_35 tmp_8)))
        (let ((tmp_37 (bvxor tmp_36 #b1)))
        (let ((tmp_38 (bvand tmp_37 tmp_34)))
        (let ((tmp_39 (bvand tmp_27 tmp_34)))
        (let ((tmp_40 (bvxor tmp_39 #b1)))
        (let ((tmp_41 ((_ extract 2 2) tmp_2)))
        (let ((tmp_42 ((_ extract 2 2) tmp_0)))
        (let ((tmp_43 (bvand tmp_42 tmp_4)))
        (let ((tmp_44 (bvand tmp_15 tmp_17)))
        (let ((tmp_45 ((_ extract 2 2) tmp)))
        (let ((tmp_46 (bvand tmp_5 tmp_45)))
        (let ((tmp_47 (bvand tmp_46 tmp_44)))
        (let ((tmp_48 (bvxor tmp_47 #b1)))
        (let ((tmp_49 (bvxor tmp_44 #b1)))
        (let ((tmp_50 (bvxor tmp_46 #b1)))
        (let ((tmp_51 (bvand tmp_50 tmp_49)))
        (let ((tmp_52 (bvxor tmp_51 #b1)))
        (let ((tmp_53 (bvand tmp_52 tmp_48)))
        (let ((tmp_54 (bvand tmp_53 tmp_43)))
        (let ((tmp_55 (bvxor tmp_54 #b1)))
        (let ((tmp_56 (bvxor tmp_43 #b1)))
        (let ((tmp_57 (bvxor tmp_53 #b1)))
        (let ((tmp_58 (bvand tmp_57 tmp_56)))
        (let ((tmp_59 (bvxor tmp_58 #b1)))
        (let ((tmp_60 (bvand tmp_59 tmp_55)))
        (let ((tmp_61 (bvand tmp_60 tmp_19)))
        (let ((tmp_62 (bvxor tmp_61 #b1)))
        (let ((tmp_63 (bvxor tmp_60 #b1)))
        (let ((tmp_64 (bvand tmp_63 tmp_20)))
        (let ((tmp_65 (bvxor tmp_64 #b1)))
        (let ((tmp_66 (bvand tmp_65 tmp_62)))
        (let ((tmp_67 (bvand tmp_66 tmp_41)))
        (let ((tmp_68 (bvxor tmp_67 #b1)))
        (let ((tmp_69 (bvxor tmp_41 #b1)))
        (let ((tmp_70 (bvxor tmp_66 #b1)))
        (let ((tmp_71 (bvand tmp_70 tmp_69)))
        (let ((tmp_72 (bvxor tmp_71 #b1)))
        (let ((tmp_73 (bvand tmp_72 tmp_68)))
        (let ((tmp_74 (bvand tmp_73 tmp_40)))
        (let ((tmp_75 (bvxor tmp_74 #b1)))
        (let ((tmp_76 (bvxor tmp_73 #b1)))
        (let ((tmp_77 (bvand tmp_76 tmp_39)))
        (let ((tmp_78 (bvxor tmp_77 #b1)))
        (let ((tmp_79 (bvand tmp_78 tmp_75)))
        (let ((tmp_80 (bvand tmp_32 tmp_13)))
        (let ((tmp_81 (bvand tmp_73 tmp_80)))
        (let ((tmp_82 (bvand tmp_81 tmp_7)))
        (let ((tmp_83 (bvxor tmp_82 #b1)))
        (let ((tmp_84 (bvand tmp_68 tmp_75)))
        (let ((tmp_85 (bvand tmp_84 tmp_83)))
        (let ((tmp_86 (bvxor tmp_85 #b1)))
        (let ((tmp_87 ((_ extract 3 3) tmp_2)))
        (let ((tmp_88 ((_ extract 3 3) tmp_0)))
        (let ((tmp_89 (bvand tmp_88 tmp_4)))
        (let ((tmp_90 (bvand tmp_48 tmp_55)))
        (let ((tmp_91 (bvxor tmp_90 #b1)))
        (let ((tmp_92 (bvand tmp_42 tmp_17)))
        (let ((tmp_93 (bvand tmp_15 tmp_45)))
        (let ((tmp_94 ((_ extract 3 3) tmp)))
        (let ((tmp_95 (bvand tmp_5 tmp_94)))
        (let ((tmp_96 (bvand tmp_95 tmp_93)))
        (let ((tmp_97 (bvxor tmp_96 #b1)))
        (let ((tmp_98 (bvxor tmp_93 #b1)))
        (let ((tmp_99 (bvxor tmp_95 #b1)))
        (let ((tmp_100 (bvand tmp_99 tmp_98)))
        (let ((tmp_101 (bvxor tmp_100 #b1)))
        (let ((tmp_102 (bvand tmp_101 tmp_97)))
        (let ((tmp_103 (bvand tmp_102 tmp_92)))
        (let ((tmp_104 (bvxor tmp_103 #b1)))
        (let ((tmp_105 (bvxor tmp_92 #b1)))
        (let ((tmp_106 (bvxor tmp_102 #b1)))
        (let ((tmp_107 (bvand tmp_106 tmp_105)))
        (let ((tmp_108 (bvxor tmp_107 #b1)))
        (let ((tmp_109 (bvand tmp_108 tmp_104)))
        (let ((tmp_110 (bvand tmp_109 tmp_91)))
        (let ((tmp_111 (bvxor tmp_110 #b1)))
        (let ((tmp_112 (bvxor tmp_109 #b1)))
        (let ((tmp_113 (bvand tmp_112 tmp_90)))
        (let ((tmp_114 (bvxor tmp_113 #b1)))
        (let ((tmp_115 (bvand tmp_114 tmp_111)))
        (let ((tmp_116 (bvand tmp_115 tmp_89)))
        (let ((tmp_117 (bvxor tmp_116 #b1)))
        (let ((tmp_118 (bvxor tmp_89 #b1)))
        (let ((tmp_119 (bvxor tmp_115 #b1)))
        (let ((tmp_120 (bvand tmp_119 tmp_118)))
        (let ((tmp_121 (bvxor tmp_120 #b1)))
        (let ((tmp_122 (bvand tmp_121 tmp_117)))
        (let ((tmp_123 (bvand tmp_122 tmp_61)))
        (let ((tmp_124 (bvxor tmp_123 #b1)))
        (let ((tmp_125 (bvxor tmp_122 #b1)))
        (let ((tmp_126 (bvand tmp_125 tmp_62)))
        (let ((tmp_127 (bvxor tmp_126 #b1)))
        (let ((tmp_128 (bvand tmp_127 tmp_124)))
        (let ((tmp_129 (bvand tmp_128 tmp_87)))
        (let ((tmp_130 (bvxor tmp_129 #b1)))
        (let ((tmp_131 (bvxor tmp_87 #b1)))
        (let ((tmp_132 (bvxor tmp_128 #b1)))
        (let ((tmp_133 (bvand tmp_132 tmp_131)))
        (let ((tmp_134 (bvxor tmp_133 #b1)))
        (let ((tmp_135 (bvand tmp_134 tmp_130)))
        (let ((tmp_136 (bvand tmp_135 tmp_86)))
        (let ((tmp_137 (bvxor tmp_136 #b1)))
        (let ((tmp_138 (bvxor tmp_135 #b1)))
        (let ((tmp_139 (bvand tmp_138 tmp_85)))
        (let ((tmp_140 (bvxor tmp_139 #b1)))
        (let ((tmp_141 (bvand tmp_140 tmp_137)))
        (let ((tmp_142 (bvand tmp_135 tmp_81)))
        (let ((tmp_143 (bvand tmp_142 tmp_40)))
        (let ((tmp_144 (bvxor tmp_143 #b1)))
        (let ((tmp_145 (bvxor tmp_84 #b1)))
        (let ((tmp_146 (bvand tmp_135 tmp_145)))
        (let ((tmp_147 (bvxor tmp_146 #b1)))
        (let ((tmp_148 (bvand tmp_130 tmp_147)))
        (let ((tmp_149 (bvand tmp_148 tmp_144)))
        (let ((tmp_150 (bvxor tmp_149 #b1)))
        (let ((tmp_151 (bvand tmp_111 tmp_117)))
        (let ((tmp_152 (bvxor tmp_151 #b1)))
        (let ((tmp_153 (bvand tmp_88 tmp_17)))
        (let ((tmp_154 (bvand tmp_97 tmp_104)))
        (let ((tmp_155 (bvxor tmp_154 #b1)))
        (let ((tmp_156 (bvand tmp_42 tmp_45)))
        (let ((tmp_157 (bvand tmp_15 tmp_94)))
        (let ((tmp_158 (bvand tmp_157 tmp_156)))
        (let ((tmp_159 (bvxor tmp_158 #b1)))
        (let ((tmp_160 (bvxor tmp_156 #b1)))
        (let ((tmp_161 (bvxor tmp_157 #b1)))
        (let ((tmp_162 (bvand tmp_161 tmp_160)))
        (let ((tmp_163 (bvxor tmp_162 #b1)))
        (let ((tmp_164 (bvand tmp_163 tmp_159)))
        (let ((tmp_165 (bvand tmp_164 tmp_155)))
        (let ((tmp_166 (bvxor tmp_165 #b1)))
        (let ((tmp_167 (bvxor tmp_164 #b1)))
        (let ((tmp_168 (bvand tmp_167 tmp_154)))
        (let ((tmp_169 (bvxor tmp_168 #b1)))
        (let ((tmp_170 (bvand tmp_169 tmp_166)))
        (let ((tmp_171 (bvand tmp_170 tmp_153)))
        (let ((tmp_172 (bvxor tmp_171 #b1)))
        (let ((tmp_173 (bvxor tmp_153 #b1)))
        (let ((tmp_174 (bvxor tmp_170 #b1)))
        (let ((tmp_175 (bvand tmp_174 tmp_173)))
        (let ((tmp_176 (bvxor tmp_175 #b1)))
        (let ((tmp_177 (bvand tmp_176 tmp_172)))
        (let ((tmp_178 (bvand tmp_177 tmp_152)))
        (let ((tmp_179 (bvxor tmp_178 #b1)))
        (let ((tmp_180 (bvxor tmp_177 #b1)))
        (let ((tmp_181 (bvand tmp_180 tmp_151)))
        (let ((tmp_182 (bvxor tmp_181 #b1)))
        (let ((tmp_183 (bvand tmp_182 tmp_179)))
        (let ((tmp_184 (bvand tmp_183 tmp_123)))
        (let ((tmp_185 (bvxor tmp_184 #b1)))
        (let ((tmp_186 (bvxor tmp_183 #b1)))
        (let ((tmp_187 (bvand tmp_186 tmp_124)))
        (let ((tmp_188 (bvxor tmp_187 #b1)))
        (let ((tmp_189 (bvand tmp_188 tmp_185)))
        (let ((tmp_190 (bvand tmp_189 tmp_150)))
        (let ((tmp_191 (bvxor tmp_190 #b1)))
        (let ((tmp_192 (bvxor tmp_189 #b1)))
        (let ((tmp_193 (bvand tmp_192 tmp_149)))
        (let ((tmp_194 (bvxor tmp_193 #b1)))
        (let ((tmp_195 (bvand tmp_194 tmp_191)))
        (let ((tmp_196 (bvand tmp_189 tmp_142)))
        (let ((tmp_197 (bvand tmp_196 tmp_7)))
        (let ((tmp_198 (bvxor tmp_197 #b1)))
        (let ((tmp_199 (bvand tmp_196 tmp_86)))
        (let ((tmp_200 (bvxor tmp_199 #b1)))
        (let ((tmp_201 (bvxor tmp_148 #b1)))
        (let ((tmp_202 (bvand tmp_189 tmp_201)))
        (let ((tmp_203 (bvxor tmp_202 #b1)))
        (let ((tmp_204 (bvand tmp_203 tmp_200)))
        (let ((tmp_205 (bvand tmp_204 tmp_198)))
        (let ((tmp_206 (bvxor tmp_205 #b1)))
        (let ((tmp_207 (bvand tmp_179 tmp_185)))
        (let ((tmp_208 (bvxor tmp_207 #b1)))
        (let ((tmp_209 (bvand tmp_166 tmp_172)))
        (let ((tmp_210 (bvxor tmp_209 #b1)))
        (let ((tmp_211 (bvand tmp_88 tmp_45)))
        (let ((tmp_212 (bvand tmp_42 tmp_94)))
        (let ((tmp_213 (bvand tmp_212 tmp_158)))
        (let ((tmp_214 (bvxor tmp_213 #b1)))
        (let ((tmp_215 (bvxor tmp_212 #b1)))
        (let ((tmp_216 (bvand tmp_215 tmp_159)))
        (let ((tmp_217 (bvxor tmp_216 #b1)))
        (let ((tmp_218 (bvand tmp_217 tmp_214)))
        (let ((tmp_219 (bvand tmp_218 tmp_211)))
        (let ((tmp_220 (bvxor tmp_219 #b1)))
        (let ((tmp_221 (bvxor tmp_211 #b1)))
        (let ((tmp_222 (bvxor tmp_218 #b1)))
        (let ((tmp_223 (bvand tmp_222 tmp_221)))
        (let ((tmp_224 (bvxor tmp_223 #b1)))
        (let ((tmp_225 (bvand tmp_224 tmp_220)))
        (let ((tmp_226 (bvand tmp_225 tmp_210)))
        (let ((tmp_227 (bvxor tmp_226 #b1)))
        (let ((tmp_228 (bvxor tmp_225 #b1)))
        (let ((tmp_229 (bvand tmp_228 tmp_209)))
        (let ((tmp_230 (bvxor tmp_229 #b1)))
        (let ((tmp_231 (bvand tmp_230 tmp_227)))
        (let ((tmp_232 (bvand tmp_231 tmp_208)))
        (let ((tmp_233 (bvxor tmp_232 #b1)))
        (let ((tmp_234 (bvxor tmp_231 #b1)))
        (let ((tmp_235 (bvand tmp_234 tmp_207)))
        (let ((tmp_236 (bvxor tmp_235 #b1)))
        (let ((tmp_237 (bvand tmp_236 tmp_233)))
        (let ((tmp_238 (bvand tmp_237 tmp_206)))
        (let ((tmp_239 (bvxor tmp_238 #b1)))
        (let ((tmp_240 (bvxor tmp_237 #b1)))
        (let ((tmp_241 (bvand tmp_240 tmp_205)))
        (let ((tmp_242 (bvxor tmp_241 #b1)))
        (let ((tmp_243 (bvand tmp_242 tmp_239)))
        (let ((tmp_244 (bvand tmp_237 tmp_196)))
        (let ((tmp_245 (bvand tmp_244 tmp_40)))
        (let ((tmp_246 (bvxor tmp_245 #b1)))
        (let ((tmp_247 (bvand tmp_244 tmp_150)))
        (let ((tmp_248 (bvxor tmp_247 #b1)))
        (let ((tmp_249 (bvand tmp_248 tmp_246)))
        (let ((tmp_250 (bvand tmp_237 tmp_202)))
        (let ((tmp_251 (bvxor tmp_250 #b1)))
        (let ((tmp_252 (bvand tmp_251 tmp_249)))
        (let ((tmp_253 (bvxor tmp_252 #b1)))
        (let ((tmp_254 (bvand tmp_25 tmp_6)))
        (let ((tmp_255 (bvand tmp_66 tmp_254)))
        (let ((tmp_256 (bvand tmp_183 tmp_128)))
        (let ((tmp_257 (bvand tmp_231 tmp_256)))
        (let ((tmp_258 (bvand tmp_257 tmp_255)))
        (let ((tmp_259 (bvand tmp_258 tmp_123)))
        (let ((tmp_260 (bvxor tmp_259 #b1)))
        (let ((tmp_261 (bvand tmp_227 tmp_233)))
        (let ((tmp_262 (bvand tmp_261 tmp_260)))
        (let ((tmp_263 (bvxor tmp_262 #b1)))
        (let ((tmp_264 (bvand tmp_214 tmp_220)))
        (let ((tmp_265 (bvxor tmp_264 #b1)))
        (let ((tmp_266 (bvand tmp_88 tmp_94)))
        (let ((tmp_267 (bvand tmp_266 tmp_265)))
        (let ((tmp_268 (bvxor tmp_267 #b1)))
        (let ((tmp_269 (bvxor tmp_266 #b1)))
        (let ((tmp_270 (bvand tmp_269 tmp_264)))
        (let ((tmp_271 (bvxor tmp_270 #b1)))
        (let ((tmp_272 (bvand tmp_271 tmp_268)))
        (let ((tmp_273 (bvand tmp_272 tmp_263)))
        (let ((tmp_274 (bvxor tmp_273 #b1)))
        (let ((tmp_275 (bvxor tmp_272 #b1)))
        (let ((tmp_276 (bvand tmp_275 tmp_262)))
        (let ((tmp_277 (bvxor tmp_276 #b1)))
        (let ((tmp_278 (bvand tmp_277 tmp_274)))
        (let ((tmp_279 (bvand tmp_278 tmp_253)))
        (let ((tmp_280 (bvxor tmp_279 #b1)))
        (let ((tmp_281 (bvxor tmp_278 #b1)))
        (let ((tmp_282 (bvand tmp_281 tmp_252)))
        (let ((tmp_283 (bvxor tmp_282 #b1)))
        (let ((tmp_284 (bvand tmp_283 tmp_280)))
        (let ((tmp_285 (bvand tmp_278 tmp_244)))
        (let ((tmp_286 (bvand tmp_285 tmp_86)))
        (let ((tmp_287 (bvxor tmp_286 #b1)))
        (let ((tmp_288 (bvxor tmp_204 #b1)))
        (let ((tmp_289 (bvand tmp_285 tmp_288)))
        (let ((tmp_290 (bvxor tmp_289 #b1)))
        (let ((tmp_291 (bvand tmp_290 tmp_287)))
        (let ((tmp_292 (bvand tmp_278 tmp_250)))
        (let ((tmp_293 (bvxor tmp_292 #b1)))
        (let ((tmp_294 (bvand tmp_293 tmp_291)))
        (let ((tmp_295 (bvxor tmp_294 #b1)))
        (let ((tmp_296 (bvand tmp_258 tmp_208)))
        (let ((tmp_297 (bvand tmp_272 tmp_296)))
        (let ((tmp_298 (bvxor tmp_297 #b1)))
        (let ((tmp_299 (bvxor tmp_261 #b1)))
        (let ((tmp_300 (bvand tmp_272 tmp_299)))
        (let ((tmp_301 (bvxor tmp_300 #b1)))
        (let ((tmp_302 (bvand tmp_301 tmp_298)))
        (let ((tmp_303 (bvand tmp_268 tmp_302)))
        (let ((tmp_304 (bvxor tmp_303 #b1)))
        (let ((tmp_305 (bvand tmp_304 tmp_295)))
        (let ((tmp_306 (bvxor tmp_305 #b1)))
        (let ((tmp_307 (bvand tmp_303 tmp_294)))
        (let ((tmp_308 (bvxor tmp_307 #b1)))
        (let ((tmp_309 (bvand tmp_308 tmp_306)))
        (let ((tmp_310 (concat tmp_309 tmp_284)))
        (let ((tmp_311 (concat tmp_310 tmp_243)))
        (let ((tmp_312 (concat tmp_311 tmp_195)))
        (let ((tmp_313 (concat tmp_312 tmp_141)))
        (let ((tmp_314 (concat tmp_313 tmp_79)))
        (let ((tmp_315 (concat tmp_314 tmp_38)))
        (let ((tmp_316 (concat tmp_315 tmp_13)))
        (let ((tmp_317 (concat #x0 tmp_2)))
        (let ((tmp_318 (concat #x0 tmp_0)))
        (let ((tmp_319 (concat #x0 tmp)))
        (let ((tmp_320 (bvmul tmp_319 tmp_318)))
        (let ((tmp_321 (bvadd tmp_320 tmp_317)))
        (let ((tmp_322 (distinct tmp_321 tmp_316)))
        (let ((tmp_323 ((_ extract 0 0) tmp_1)))
        (let ((tmp_324 (bvand tmp_6 tmp_323)))
        (let ((tmp_325 (bvxor tmp_324 #b1)))
        (let ((tmp_326 (bvxor tmp_323 #b1)))
        (let ((tmp_327 (bvand tmp_10 tmp_326)))
        (let ((tmp_328 (bvxor tmp_327 #b1)))
        (let ((tmp_329 (bvand tmp_328 tmp_325)))
        (let ((tmp_330 ((_ extract 1 1) tmp_1)))
        (let ((tmp_331 (bvand tmp_25 tmp_330)))
        (let ((tmp_332 (bvxor tmp_331 #b1)))
        (let ((tmp_333 (bvxor tmp_330 #b1)))
        (let ((tmp_334 (bvand tmp_29 tmp_333)))
        (let ((tmp_335 (bvxor tmp_334 #b1)))
        (let ((tmp_336 (bvand tmp_335 tmp_332)))
        (let ((tmp_337 (bvand tmp_336 tmp_324)))
        (let ((tmp_338 (bvxor tmp_337 #b1)))
        (let ((tmp_339 (bvxor tmp_336 #b1)))
        (let ((tmp_340 (bvand tmp_339 tmp_325)))
        (let ((tmp_341 (bvxor tmp_340 #b1)))
        (let ((tmp_342 (bvand tmp_341 tmp_338)))
        (let ((tmp_343 (bvand tmp_332 tmp_338)))
        (let ((tmp_344 (bvxor tmp_343 #b1)))
        (let ((tmp_345 ((_ extract 2 2) tmp_1)))
        (let ((tmp_346 (bvand tmp_66 tmp_345)))
        (let ((tmp_347 (bvxor tmp_346 #b1)))
        (let ((tmp_348 (bvxor tmp_345 #b1)))
        (let ((tmp_349 (bvand tmp_70 tmp_348)))
        (let ((tmp_350 (bvxor tmp_349 #b1)))
        (let ((tmp_351 (bvand tmp_350 tmp_347)))
        (let ((tmp_352 (bvand tmp_351 tmp_344)))
        (let ((tmp_353 (bvxor tmp_352 #b1)))
        (let ((tmp_354 (bvxor tmp_351 #b1)))
        (let ((tmp_355 (bvand tmp_354 tmp_343)))
        (let ((tmp_356 (bvxor tmp_355 #b1)))
        (let ((tmp_357 (bvand tmp_356 tmp_353)))
        (let ((tmp_358 (bvand tmp_336 tmp_329)))
        (let ((tmp_359 (bvand tmp_351 tmp_358)))
        (let ((tmp_360 (bvand tmp_359 tmp_324)))
        (let ((tmp_361 (bvxor tmp_360 #b1)))
        (let ((tmp_362 (bvand tmp_347 tmp_353)))
        (let ((tmp_363 (bvand tmp_362 tmp_361)))
        (let ((tmp_364 (bvxor tmp_363 #b1)))
        (let ((tmp_365 ((_ extract 3 3) tmp_1)))
        (let ((tmp_366 (bvand tmp_128 tmp_365)))
        (let ((tmp_367 (bvxor tmp_366 #b1)))
        (let ((tmp_368 (bvxor tmp_365 #b1)))
        (let ((tmp_369 (bvand tmp_132 tmp_368)))
        (let ((tmp_370 (bvxor tmp_369 #b1)))
        (let ((tmp_371 (bvand tmp_370 tmp_367)))
        (let ((tmp_372 (bvand tmp_371 tmp_364)))
        (let ((tmp_373 (bvxor tmp_372 #b1)))
        (let ((tmp_374 (bvxor tmp_371 #b1)))
        (let ((tmp_375 (bvand tmp_374 tmp_363)))
        (let ((tmp_376 (bvxor tmp_375 #b1)))
        (let ((tmp_377 (bvand tmp_376 tmp_373)))
        (let ((tmp_378 (bvand tmp_371 tmp_359)))
        (let ((tmp_379 (bvand tmp_378 tmp_344)))
        (let ((tmp_380 (bvxor tmp_379 #b1)))
        (let ((tmp_381 (bvxor tmp_362 #b1)))
        (let ((tmp_382 (bvand tmp_371 tmp_381)))
        (let ((tmp_383 (bvxor tmp_382 #b1)))
        (let ((tmp_384 (bvand tmp_367 tmp_383)))
        (let ((tmp_385 (bvand tmp_384 tmp_380)))
        (let ((tmp_386 (bvxor tmp_385 #b1)))
        (let ((tmp_387 (bvand tmp_189 tmp_386)))
        (let ((tmp_388 (bvxor tmp_387 #b1)))
        (let ((tmp_389 (bvand tmp_192 tmp_385)))
        (let ((tmp_390 (bvxor tmp_389 #b1)))
        (let ((tmp_391 (bvand tmp_390 tmp_388)))
        (let ((tmp_392 (bvand tmp_189 tmp_378)))
        (let ((tmp_393 (bvand tmp_392 tmp_324)))
        (let ((tmp_394 (bvxor tmp_393 #b1)))
        (let ((tmp_395 (bvand tmp_392 tmp_364)))
        (let ((tmp_396 (bvxor tmp_395 #b1)))
        (let ((tmp_397 (bvxor tmp_384 #b1)))
        (let ((tmp_398 (bvand tmp_189 tmp_397)))
        (let ((tmp_399 (bvxor tmp_398 #b1)))
        (let ((tmp_400 (bvand tmp_399 tmp_396)))
        (let ((tmp_401 (bvand tmp_400 tmp_394)))
        (let ((tmp_402 (bvxor tmp_401 #b1)))
        (let ((tmp_403 (bvand tmp_237 tmp_402)))
        (let ((tmp_404 (bvxor tmp_403 #b1)))
        (let ((tmp_405 (bvand tmp_240 tmp_401)))
        (let ((tmp_406 (bvxor tmp_405 #b1)))
        (let ((tmp_407 (bvand tmp_406 tmp_404)))
        (let ((tmp_408 (bvand tmp_237 tmp_392)))
        (let ((tmp_409 (bvand tmp_408 tmp_344)))
        (let ((tmp_410 (bvxor tmp_409 #b1)))
        (let ((tmp_411 (bvand tmp_408 tmp_386)))
        (let ((tmp_412 (bvxor tmp_411 #b1)))
        (let ((tmp_413 (bvand tmp_412 tmp_410)))
        (let ((tmp_414 (bvand tmp_237 tmp_398)))
        (let ((tmp_415 (bvxor tmp_414 #b1)))
        (let ((tmp_416 (bvand tmp_415 tmp_413)))
        (let ((tmp_417 (bvxor tmp_416 #b1)))
        (let ((tmp_418 (bvand tmp_278 tmp_417)))
        (let ((tmp_419 (bvxor tmp_418 #b1)))
        (let ((tmp_420 (bvand tmp_281 tmp_416)))
        (let ((tmp_421 (bvxor tmp_420 #b1)))
        (let ((tmp_422 (bvand tmp_421 tmp_419)))
        (let ((tmp_423 (bvand tmp_278 tmp_408)))
        (let ((tmp_424 (bvand tmp_423 tmp_364)))
        (let ((tmp_425 (bvxor tmp_424 #b1)))
        (let ((tmp_426 (bvxor tmp_400 #b1)))
        (let ((tmp_427 (bvand tmp_423 tmp_426)))
        (let ((tmp_428 (bvxor tmp_427 #b1)))
        (let ((tmp_429 (bvand tmp_428 tmp_425)))
        (let ((tmp_430 (bvand tmp_278 tmp_414)))
        (let ((tmp_431 (bvxor tmp_430 #b1)))
        (let ((tmp_432 (bvand tmp_431 tmp_429)))
        (let ((tmp_433 (bvxor tmp_432 #b1)))
        (let ((tmp_434 (bvand tmp_304 tmp_433)))
        (let ((tmp_435 (bvxor tmp_434 #b1)))
        (let ((tmp_436 (bvand tmp_303 tmp_432)))
        (let ((tmp_437 (bvxor tmp_436 #b1)))
        (let ((tmp_438 (bvand tmp_437 tmp_435)))
        (let ((tmp_439 (concat tmp_438 tmp_422)))
        (let ((tmp_440 (concat tmp_439 tmp_407)))
        (let ((tmp_441 (concat tmp_440 tmp_391)))
        (let ((tmp_442 (concat tmp_441 tmp_377)))
        (let ((tmp_443 (concat tmp_442 tmp_357)))
        (let ((tmp_444 (concat tmp_443 tmp_342)))
        (let ((tmp_445 (concat tmp_444 tmp_329)))
        (let ((tmp_446 (concat #x0 tmp_1)))
        (let ((tmp_447 (bvadd tmp_320 tmp_446)))
        (let ((tmp_448 (distinct tmp_447 tmp_445)))
        (let ((tmp_449 (or tmp_448 tmp_322)))
        tmp_449))))))))))))))))))))))))))))))))))))))))))))))))))))))))))))))))))))))))))))))))))))))))))))))))))))))))))))))))))))))))))))))))))))))))))))))))))))))))))))))))))))))))))))))))))))))))))))))))))))))))))))))))))))))))))))))))))))))))))))))))))))))))))))))))))))))))))))))))))))))))))))))))))))))))))))))))))))))))))))))))))))))))))))))))))))))))))))))))))))))))))))))))))))))))))))))))))))))))))))))))))))))))))))))))))))))))))))))))))))))))))))))))
(check-sat)

(exit)